50
16865

549 434
393 101
112 965
450 193
663 595
92 312
150 74
397 694
556 508
369 863
139 951
160 200
209 109
36 831
614 19
861 878
244 294
97 635
306 489
112 290
425 16
264 329
461 588
527 850
25 92
818 595
940 533
717 709
712 228
699 750
698 38
398 249
525 652
278 286
937 649
882 605
481 548
545 726
716 435
852 703
325 722
864 931
281 863
944 769
214 983
213 632
242 504
389 590
599 378
710 2
